NAME : n60w60.002.715.tour
COMMENT : Length = 715
COMMENT : Found by LKH [Keld Helsgaun] Tue May  2 05:46:15 2017
TYPE : TOUR
DIMENSION : 61
TOUR_SECTION
1
49
10
14
45
57
20
33
42
53
60
6
2
21
48
56
25
50
15
46
55
9
27
41
59
24
19
4
37
52
35
16
26
43
13
38
17
12
23
51
8
32
3
11
58
34
54
47
39
31
5
18
40
22
44
7
36
61
28
30
29
-1
EOF
